
param c :
   1  2  3  4  5  6 :=
A 25 30 26 34 32 30
B 30 32 34 35 38 40
C 40 46 42 37 40 50
;

param : J : f :=
1  550
2  700
3 1100
4  350
5  400
6  450
;

param : I : p :=
A  60.0
B  82.5
C 108.0
;

param d :=
A 700
B 500
C 600
;